HUN,8,6,316
1,25,2,23,5,28,4,30,3,21,0,23
5,23,1,27,4,29,0,24,3,28,2,29
5,30,2,23,0,24,1,22,3,28,4,26
5,23,2,21,4,27,0,22,1,21,3,28
2,28,4,29,5,26,1,24,0,24,3,25
5,30,4,30,1,24,2,27,3,28,0,29
2,22,4,30,0,23,5,23,3,30,1,22
3,29,2,28,1,30,0,21,4,27,5,29
